unsat
(define-fun inv-f ((c Int) (n Int) (tmp Int) (c_0 Int) (c_1 Int) (c_2 Int) (c_3 Int) (c_4 Int) (c_5 Int) (n_0 Int)) Bool (and (or (not (= c c_2)) (not (= n n_0)) (= c_2 n_0) (not (>= (+ c_2 (* (- 1) n_0)) 1))) (not (>= (+ c (* (- 1) n)) 0))))
0.07user 0.00system 0:00.08elapsed 100%CPU (0avgtext+0avgdata 26916maxresident)k
0inputs+8outputs (0major+1482minor)pagefaults 0swaps
